(declare-fun l1m3 () Int)(declare-fun l1m2 () Int)(declare-fun l1m1 () Int)(declare-fun l1m0 () Int)(declare-fun h0m3 () Int)(declare-fun h0m2 () Int)(declare-fun h0m1 () Int)(declare-fun h0m0 () Int) (assert (not (= h0m0 l1m0))) (assert (<= l1m0 127)) (assert (>= l1m0 (- 128))) (assert (<= l1m1 127)) (assert (>= l1m1 (- 128))) (assert (<= l1m2 127)) (assert (>= l1m2 (- 128))) (assert (<= l1m3 127)) (assert (>= l1m3 (- 128))) (assert (<= h0m0 127)) (assert (>= h0m0 (- 128))) (assert (<= h0m1 127)) (assert (>= h0m1 (- 128))) (assert (<= h0m2 127)) (assert (>= h0m2 (- 128))) (assert (<= h0m3 127)) (assert (>= h0m3 (- 128))) (assert (not false)) (check-sat) (get-model)
